letting n_nurses=25
letting n_days=7
letting n_shift_types=4
letting max_covers=11
letting t_covers=61
letting covers=[1,0,0,0,8,0,5,0,2,3,10,0,7,0,9,0,11,1,4,0,0,0,0,0,0,0,0,0]
letting prefes=[4,1,4,1,2,2,1,4,4,1,4,1,2,2,1,4,4,1,4,1,2,2,1,4,2,2,1,4,4,4,4,2,1,2,1,4,4,4,4,2,1,2,1,4,4,4,4,2,1,2,1,4,1,2,1,4,4,4,4,2,1,2,1,1,4,4,4,2,1,2,1,1,4,4,4,2,1,2,1,1,1,2,1,1,1,1,4,1,1,2,1,4,1,1,4,1,1,2,1,4,1,1,4,1,1,2,1,4,1,2,1,4,4,4,4,2,1,1,4,4,4,4,4,2,1,1,4,4,4,4,4,2,1,1,4,4,1,1,4,4,4,1,4,2,1,2,1,4,4,1,4,2,1,2,1,4,4,1,4,2,1,2,1,4,1,2,1,4,1,1,2,2,1,2,1,4,1,1,2,2,1,2,1,4,1,1,2,2,1,2,1,4,1,2,1,4,4,1,4,1,1,2,1,4,4,1,4,1,1,2,1,4,4,1,4,1,1,2,1,4,1,2,1,4,4,1,2,2,1,2,1,4,4,1,2,2,1,2,1,4,4,1,2,2,1,2,1,4,1,2,1,4,4,1,4,2,1,2,1,1,4,1,4,2,1,2,1,1,4,1,4,2,1,2,1,1,1,2,1,1,4,1,4,2,1,2,1,4,4,1,4,2,1,2,1,4,4,1,4,2,1,2,1,4,1,2,1,4,4,1,4,2,2,2,2,4,4,1,4,2,2,2,2,4,4,1,4,2,2,2,2,4,2,2,2,4,1,1,4,1,1,2,1,1,1,1,4,1,1,2,1,1,1,1,4,1,1,2,1,1,1,2,1,1,4,1,4,2,2,2,1,4,4,1,4,2,2,2,1,4,4,1,4,2,2,2,1,4,2,2,1,4,4,1,4,2,1,2,1,4,4,1,4,2,1,2,1,4,4,1,4,2,1,2,1,4,1,2,1,4,4,1,4,2,1,1,1,4,4,1,4,2,1,1,1,4,4,1,4,2,1,1,1,4,1,1,1,4,4,1,2,2,1,1,1,4,4,1,2,2,1,1,1,4,4,1,2,2,1,1,1,4,1,1,1,4,4,4,4,2,1,2,1,4,4,4,4,2,1,2,1,4,4,4,4,2,1,2,1,4,1,2,1,4,4,1,2,2,2,2,1,4,4,1,2,2,2,2,1,4,4,1,2,2,2,2,1,4,2,2,1,4,4,1,4,1,2,2,4,4,4,1,4,1,2,2,4,4,4,1,4,1,2,2,4,4,2,2,4,4,4,4,4,2,1,2,1,4,4,4,4,2,1,2,1,4,4,4,4,2,1,2,1,4,1,2,1,4,4,1,4,2,1,1,1,1,4,1,4,2,1,1,1,1,4,1,4,2,1,1,1,1,1,1,1,1,1,1,2,2,1,2,4,4,1,1,2,2,1,2,4,4,1,1,2,2,1,2,4,4,1,2,4,4,4,1,4,2,1,2,1,1,4,1,4,2,1,2,1,1,4,1,4,2,1,2,1,1,1,2,1,1,1,1,4,2,1,1,4,4,1,1,4,2,1,1,4,4,1,1,4,2,1,1,4,4,1,1,4,4]
letting ub =  307
